proyfinal/src/viki/013/andrea/andrea-localstore/experimentInOfficeAgust.take6/worker_10/59d63293-175f-45f4-a95c-10791e5eb896.als.cnf.out
Reading from standard input... Use '--help' for help.
============================[ Problem Statistics ]=============================
|                                                                             |
|  Number of variables:         87638                                         |
|  Number of clauses:          161767                                         |
|  Parse time:                   0.04 s                                       |
|                                                                             |
============================[ Search Statistics ]==============================
| Conflicts |          ORIGINAL         |          LEARNT          | Progress |
|           |    Vars  Clauses Literals |    Limit  Clauses Lit/Cl |          |
===============================================================================
|       100 |   63968   110789   276890 |    40622      100     11 | 27.009 % |
|       250 |   63950   110723   276718 |    44684      241     52 | 27.029 % |
|       475 |   53612    80279   201674 |    49153      455     53 | 38.826 % |
|       812 |   53221    79953   200882 |    54068      787     44 | 39.272 % |
|      1318 |   53212    79183   198806 |    59475     1288     51 | 39.282 % |
|      2077 |   52664    77260   194089 |    65423     1996     49 | 39.907 % |
|      3216 |   52562    76916   193207 |    71965     3130     57 | 40.024 % |
|      4924 |   51869    75595   190000 |    79162     4795     57 | 40.814 % |
|      7486 |   51661    73552   184967 |    87078     7197     62 | 41.052 % |
|     11330 |   51210    71993   181046 |    95786    10908     65 | 41.566 % |
|     17096 |   50943    71263   179332 |   105364    16043     65 | 41.871 % |
===============================================================================
restarts              : 67
conflicts             : 19717          (7509 /sec)
decisions             : 64716          (0.00 % random) (24647 /sec)
propagations          : 25750762       (9806975 /sec)
conflict literals     : 1204285        (46.07 % deleted)
Memory used           : 32.92 MB
CPU time              : 2.62576 s

UNSATISFIABLE
